Vertices = {wa, or, ca, nv, id, az, ut, mt, wy, co, nm, tx, ok, ks, ne, sd, nd, mn , ia, mo, ar, la, ms, al, ga, sc, nc, fl, tn, ky, va, wv, il, in, oh, pa, wi, mi, ny, vt, nh, me, ma, ri, ct, nj, de, md};

NbEdges = 1..109;
Edges1 = [wa, wa, or, or, or, id, id, id, id, ca, ca, nv, nv, ut, ut, ut, wy, wy, wy, wy, mt, mt, az, az, co, co, co, co, ne, ne, ne, ne, sd, sd, sd, nd, nm, nm, ok, ok, ok, ok, ks, ks, mo, mo, mo, mo, mo, ia, ia, ia, mn, tx, ar, ar, ar, ar, tn, tn, tn, tn, tn, tn, ky, ky, ky, ky, ky, il, il, wi, la, ms, al, al, ga, ga, nc, nc, va, va, wv, wv, wv, oh, oh, oh, in, wi, wi, md, md, pa, pa, pa, de, nj, nj, ny, ny, ny, ny, ct, ri, ma, ma, vt, nh, ];

Edges2 = [or, id, id, ca, nv, nv, ut, wy, mt, nv, az, ut, az, az, co, wy, co, ne, sd, mt, nd, sd, nm, co, nm, ok, ks, ne, ks, mo, ia, sd, ia, mn, nd, mn, tx, ok, tx, ar, mo, ks, mo, ne, ar, tn, ky, il, ia, il, wi, mn, wi, la, la, ms, tn, mo, ms, al, ga, nc, va, ky, va, wv, oh, in, il, in, wi, mi, ms, al, fl, ga, fl, sc, sc, va, wv, md, oh, md, pa, pa, mi, in, mi, mn, mi, de, pa, de, nj, ny, nj, ct, ny, ct, ri, ma, vt, ri, ma, vt, nh, nh, me];